100
150
100
99
99
97
97
96
95
95
95
93
93
90
89
89
86
85
82
81
79
79
78
77
77
76
76
76
74
74
74
73
71
71
70
70
69
67
66
66
65
65
61
61
61
60
59
59
58
57
54
52
48
48
47
47
46
46
46
46
44
44
42
42
41
41
39
39
39
39
36
35
34
31
31
26
26
26
24
22
21
21
19
18
17
17
16
16
15
15
14
14
13
12
10
7
7
7
3
3
2
2
